computational_data/real_data/solutions/iris_trial_016_lex.sol
Optimal - objective value 5.86666800
      0 r_0                         1                       1
      1 r_1                         0                       1
      2 r_2                         0                       1
      3 r_3                         0                       1
      4 r_4                         0                       1
      5 r_5                         0                       1
      6 r_6                         0                       1
      7 r_7                         0                0.966667
      8 r_8                         0                0.966667
      9 r_9                         0                       1
     10 r_10                        0                0.966667
     11 r_11                        0                0.966667
     12 r_12                        0                       1
     13 r_13                        1                0.966667
     14 r_14                        0                0.966667
     15 r_15                        0                0.966667
     16 r_16                        0                       1
     17 r_17                        1                0.966667
     18 r_18                        0                       1
     19 r_19                        0                       1
     20 r_20                        0                       1
     21 b_0                         0                       1
     22 b_1                         0                       1
     23 b_2                         0                       1
     24 b_3                         0                       1
     25 b_4                         0                       1
     26 b_5                         1                       1
     27 b_6                         0                       1
     28 b_7                         0                0.966667
     29 b_8                         0                0.966667
     30 b_9                         0                       1
     31 b_10                        0                0.966667
     32 b_11                        1                0.966667
     33 b_12                        0                       1
     34 b_13                        0                0.966667
     35 b_14                        1                0.966667
     36 b_15                        0                0.966667
     37 b_16                        0                       1
     38 b_17                        0                0.966667
     39 b_18                        0                       1
     40 b_19                        0                       1
     41 b_20                        0                       1
